100 152778
9 26 62 22 39 49 47 79 32 1 13 54 23 93 43 76 29 35 84 69 74 100 58 42 96 12 82 92 34 21 40 3 6 83 19 64 27 25 57 98 31 60 94 66 14 11 99 90 70 30 4 37 33 56 44 89 80 55 17 91 48 87 95 68 78 2 73 46 71 18 61 85 15 75 97 20 10 72 52 41 59 53 77 28 50 81 67 7 86 63 16 51 5 8 88 36 24 38 45 65 
